interdiction/MCDM/NO_CORR/GEN_FROM_60/13_ITEMS_1000_GEN/K5013W09.KNP.mps
NAME          BLANK   
ROWS
 N  OBJROW
 L  R0000000
COLUMNS
    C0000000  OBJROW     -387.         R0000000  963.        
    C0000001  OBJROW     -144.         R0000000  430.        
    C0000002  OBJROW     -216.         R0000000  424.        
    C0000003  OBJROW     -407.         R0000000  119.        
    C0000004  OBJROW     -244.         R0000000  369.        
    C0000005  OBJROW     -301.         R0000000  844.        
    C0000006  OBJROW     -866.         R0000000  150.        
    C0000007  OBJROW     -817.         R0000000  845.        
    C0000008  OBJROW     -152.         R0000000  148.        
    C0000009  OBJROW     -771.         R0000000  678.        
    C0000010  OBJROW     -304.         R0000000  390.        
    C0000011  OBJROW     -33.          R0000000  503.        
    C0000012  OBJROW     -761.         R0000000  972.        
RHS
    RHS       R0000000  14716.      
BOUNDS
 BV BOUND     C0000000  1.          
 BV BOUND     C0000001  1.          
 BV BOUND     C0000002  1.          
 BV BOUND     C0000003  1.          
 BV BOUND     C0000004  1.          
 BV BOUND     C0000005  1.          
 BV BOUND     C0000006  1.          
 BV BOUND     C0000007  1.          
 BV BOUND     C0000008  1.          
 BV BOUND     C0000009  1.          
 BV BOUND     C0000010  1.          
 BV BOUND     C0000011  1.          
 BV BOUND     C0000012  1.          
ENDATA
