data/MCDM/NO_CORR/GEN_FROM_60/13_ITEMS_1000_GEN/K5013W09.KNP.txt
N 13
M 14
LC 13
LC 14
LC 15
LC 16
LC 17
LC 18
LC 19
LC 20
LC 21
LC 22
LC 23
LC 24
LC 25
LR 1
LR 2
LR 3
LR 4
LR 5
LR 6
LR 7
LR 8
LR 9
LR 10
LR 11
LR 12
LR 13
LR 14
LO -387
LO -144
LO -216
LO -407
LO -244
LO -301
LO -866
LO -817
LO -152
LO -771
LO -304
LO -33
LO -761
OS 1
IC 185
IC 798
IC 327
IC 602
IC 553
IC 602
IC 401
IC 82
IC 711
IC 741
IC 543
IC 53
IC 955
IB 3277
